40
    26    27    54    92    35    64    78    18     5    34    43     8    65    24    79    64    70    76    92    90     5    83    69    95    81    93    72    90    40     7    45    91    49    78     6    14     5    13    55    80
     1     4     4    10     7     1    10     9     3    10     6     6     5     8     6     4     4     8    10     5     2     9     7     1     8     6     3     7     9     9     6     8     2     5     7     9     1     7     2     8
   894  2007  1726   868  1628  2120   505   575  2001  1808  1630  2012  2263   248  1103  2307  1114  1751  1595   914  1848   367  2220   600   535  1488  2027  1040   610  2228   334  1923  1054   340   228   769   422  2079   441   264
